Route 1: 0 26 96 40 33 82 21 65 0
Route 2: 0 28 48 73 53 84 50 91 0
Route 3: 0 95 93 71 83 30 45 19 12 97 0
Route 4: 0 17 4 51 11 58 60 42 44 0
Route 5: 0 77 100 18 81 15 69 88 7 0
Route 6: 0 27 14 36 41 86 55 61 25 32 38 92 35 0
Route 7: 0 6 24 52 66 74 94 37 8 75 79 0
Route 8: 0 68 49 9 34 13 85 47 2 0
Route 9: 0 46 87 64 10 56 54 78 0
Route 10: 0 39 5 1 3 67 23 63 99 62 0
Route 11: 0 22 98 80 89 57 43 76 29 0
Route 12: 0 70 31 16 90 72 20 59 0
